p cnf 160 142
-13  -11  -12  0
19  -17  -18  0
-21  19  20  0
-27  25  -26  0
-29  -27  -28  0
37  35  -36  0
43  41  -42  0
-45  -43  44  0
-53  -51  -52  0
63  -61  62  0
65  -63  -64  0
67  -65  -66  0
69  67  -68  0
-73  -71  72  0
75  -73  74  0
79  -77  -78  0
-87  85  -86  0
89  87  88  0
99  97  98  0
-101  -99  -100  0
-105  -103  104  0
109  -107  -108  0
111  -109  110  0
-115  113  114  0
129  -127  128  0
-131  -129  130  0
137  135  -136  0
139  -137  -138  0
-149  -147  -148  0
-153  -151  152  0
-155  -153  -154  0
-157  155  156  0
159  -157  158  0
-4  -3  -1  0
4  1  -2  0
6  3  4  0
8  -7  5  0
-10  -9  -7  0
10  -7  -8  0
-14  11  12  0
18  -17  -16  0
-18  17  15  0
-18  -15  -16  0
-20  -19  -18  0
20  19  17  0
-22  19  20  0
-24  23  21  0
-24  -21  -22  0
-28  27  -26  0
-28  27  25  0
28  -25  26  0
32  31  30  0
32  31  -29  0
34  33  32  0
-34  -33  -31  0
34  31  32  0
-36  35  34  0
-38  37  36  0
38  37  -35  0
-40  -39  -38  0
42  41  40  0
42  41  -39  0
-46  -45  -43  0
-48  -45  -46  0
50  49  -47  0
-52  -51  -50  0
-54  53  52  0
54  51  52  0
56  -53  -54  0
58  57  -56  0
-58  -55  56  0
60  59  57  0
-60  -57  58  0
62  -61  -60  0
62  61  59  0
64  61  -62  0
66  -65  -64  0
66  -65  63  0
66  -63  64  0
-68  67  -66  0
-70  69  -68  0
-70  -67  -68  0
74  73  -72  0
74  71  -72  0
-76  -75  73  0
-80  -79  78  0
-82  -81  -79  0
84  83  -81  0
84  -81  82  0
-86  -85  -84  0
86  85  -83  0
86  -83  84  0
90  89  -87  0
-90  87  -88  0
-92  -91  90  0
-92  89  90  0
-96  95  -94  0
-96  93  94  0
-98  95  -96  0
100  99  98  0
102  101  -100  0
-102  101  -99  0
-104  -103  101  0
-106  105  104  0
-106  -105  103  0
-106  -103  -104  0
108  107  -105  0
108  105  106  0
110  109  107  0
-112  -111  110  0
-114  -113  -112  0
116  -115  -113  0
118  -117  116  0
-120  -117  118  0
-122  -121  -120  0
122  -121  119  0
122  119  -120  0
-124  123  122  0
-124  123  121  0
126  -125  -123  0
128  127  -126  0
-128  -127  -125  0
-130  129  -128  0
130  127  128  0
132  131  -130  0
-134  -133  -131  0
-134  -131  132  0
-136  135  134  0
-136  135  133  0
140  139  -137  0
140  137  138  0
144  -141  142  0
146  145  144  0
-146  -143  -144  0
148  -147  -145  0
-150  149  -147  0
150  147  -148  0
152  -151  150  0
-158  -157  -155  0
-160  -159  -158  0
160  -159  157  0
-160  157  158  0
